100
32
21
18
28
2
26
6
20
11
27
16
16
26
27
3
9
22
27
10
23
8
17
19
20
18
19
21
6
24
28
3
17
5
2
25
15
9
16
26
14
30
8
32
19
18
14
25
7
3
27
31
9
24
15
30
23
13
5
20
13
26
28
9
19
24
14
12
1
13
16
20
12
23
24
8
22
25
30
8
27
11
31
11
23
21
10
26
10
22
6
17
3
11
16
18
29
14
26
12
16
30